p cnf 255 1769
97 101 106 149 156 165 0
121 125 133 138 239 0
90 158 160 169 0
127 143 176 187 0
79 147 152 172 0
198 246 248 0
119 135 179 205 207 0
115 157 0
110 111 114 0
150 162 0
95 99 104 167 0
124 131 134 206 0
86 88 89 91 94 0
82 173 182 184 242 0
77 145 154 193 0
200 203 210 211 213 0
116 214 215 216 0
112 217 0
219 220 221 223 224 227 0
163 226 229 230 231 0
102 108 164 232 0
126 137 140 234 236 238 0
171 240 0
84 109 161 183 0
144 189 241 0
142 195 0
202 245 0
247 249 0
251 252 0
93 123 0
174 185 0
177 191 243 0
80 129 197 254 0
180 208 212 0
218 222 255 0
74 75 225 228 0
71 72 73 0
100 105 107 148 0
159 168 170 0
141 175 186 188 0
69 70 201 244 0
67 68 118 178 204 0
63 65 66 0
61 250 0
59 60 113 0
57 58 0
56 98 103 166 0
53 54 55 130 0
52 85 87 92 0
51 81 181 0
76 153 196 0
50 199 209 0
-48 -206 0
-161 -234 0
-234 -241 0
-142 -234 0
-161 -241 0
-142 -161 0
-142 -241 0
-212 -254 0
-47 -254 0
-46 -254 0
-47 -212 0
-46 -212 0
-46 -47 0
-107 -139 0
-234 -254 0
-107 -234 0
-107 -254 0
-161 -212 0
-139 -161 0
-139 -212 0
-206 -241 0
-47 -206 0
-47 -241 0
-48 -142 0
-46 -48 0
-46 -142 0
-44 -162 0
-44 -94 0
-94 -162 0
-42 -210 0
-210 -221 0
-42 -221 0
-155 -226 0
-226 -236 0
-226 -240 0
-155 -236 0
-155 -240 0
-236 -240 0
-123 -243 0
-123 -129 0
-123 -192 0
-129 -243 0
-192 -243 0
-129 -192 0
-41 -68 0
-123 -226 0
-41 -226 0
-41 -123 0
-155 -243 0
-68 -155 0
-68 -243 0
-44 -210 0
-44 -236 0
-44 -129 0
-210 -236 0
-129 -210 0
-129 -236 0
-42 -162 0
-162 -240 0
-162 -192 0
-42 -240 0
-42 -192 0
-192 -240 0
-94 -221 0
-40 -106 0
-106 -138 0
-40 -138 0
-163 -232 0
-96 -163 0
-163 -238 0
-96 -232 0
-232 -238 0
-96 -238 0
-117 -247 0
-62 -247 0
-247 -251 0
-62 -117 0
-117 -251 0
-62 -251 0
-194 -201 0
-67 -194 0
-43 -194 0
-67 -201 0
-43 -201 0
-43 -67 0
-39 -55 0
-55 -92 0
-55 -209 0
-39 -92 0
-39 -209 0
-92 -209 0
-106 -163 0
-106 -247 0
-106 -194 0
-55 -106 0
-163 -247 0
-163 -194 0
-55 -163 0
-194 -247 0
-55 -247 0
-55 -194 0
-40 -232 0
-40 -117 0
-40 -201 0
-39 -40 0
-117 -232 0
-201 -232 0
-39 -232 0
-117 -201 0
-39 -117 0
-39 -201 0
-96 -138 0
-62 -138 0
-67 -138 0
-92 -138 0
-62 -96 0
-67 -96 0
-92 -96 0
-62 -67 0
-62 -92 0
-67 -92 0
-238 -251 0
-43 -209 0
-38 -165 0
-90 -165 0
-165 -176 0
-147 -165 0
-165 -205 0
-38 -90 0
-38 -176 0
-38 -147 0
-38 -205 0
-90 -176 0
-90 -147 0
-90 -205 0
-147 -176 0
-176 -205 0
-147 -205 0
-36 -157 0
-35 -36 0
-36 -104 0
-36 -134 0
-36 -91 0
-35 -157 0
-104 -157 0
-134 -157 0
-91 -157 0
-35 -104 0
-35 -134 0
-35 -91 0
-104 -134 0
-91 -104 0
-91 -134 0
-184 -190 0
-184 -211 0
-34 -184 0
-184 -214 0
-184 -219 0
-190 -211 0
-34 -190 0
-190 -214 0
-190 -219 0
-34 -211 0
-211 -214 0
-211 -219 0
-34 -214 0
-34 -219 0
-214 -219 0
-218 -228 0
-105 -218 0
-136 -218 0
-170 -218 0
-188 -218 0
-105 -228 0
-136 -228 0
-170 -228 0
-188 -228 0
-105 -136 0
-105 -170 0
-105 -188 0
-136 -170 0
-136 -188 0
-170 -188 0
-33 -244 0
-33 -66 0
-33 -60 0
-32 -33 0
-33 -56 0
-66 -244 0
-60 -244 0
-32 -244 0
-56 -244 0
-60 -66 0
-32 -66 0
-56 -66 0
-32 -60 0
-56 -60 0
-32 -56 0
-31 -54 0
-51 -54 0
-54 -196 0
-50 -54 0
-30 -54 0
-31 -51 0
-31 -196 0
-31 -50 0
-30 -31 0
-51 -196 0
-50 -51 0
-30 -51 0
-50 -196 0
-30 -196 0
-30 -50 0
-36 -165 0
-165 -184 0
-165 -218 0
-33 -165 0
-54 -165 0
-36 -184 0
-36 -218 0
-33 -36 0
-36 -54 0
-184 -218 0
-33 -184 0
-54 -184 0
-33 -218 0
-54 -218 0
-33 -54 0
-38 -157 0
-38 -190 0
-38 -228 0
-38 -244 0
-31 -38 0
-157 -190 0
-157 -228 0
-157 -244 0
-31 -157 0
-190 -228 0
-190 -244 0
-31 -190 0
-228 -244 0
-31 -228 0
-31 -244 0
-35 -90 0
-90 -211 0
-90 -105 0
-66 -90 0
-51 -90 0
-35 -211 0
-35 -105 0
-35 -66 0
-35 -51 0
-105 -211 0
-66 -211 0
-51 -211 0
-66 -105 0
-51 -105 0
-51 -66 0
-104 -176 0
-34 -176 0
-136 -176 0
-60 -176 0
-176 -196 0
-34 -104 0
-104 -136 0
-60 -104 0
-104 -196 0
-34 -136 0
-34 -60 0
-34 -196 0
-60 -136 0
-136 -196 0
-60 -196 0
-134 -147 0
-147 -214 0
-147 -170 0
-32 -147 0
-50 -147 0
-134 -214 0
-134 -170 0
-32 -134 0
-50 -134 0
-170 -214 0
-32 -214 0
-50 -214 0
-32 -170 0
-50 -170 0
-32 -50 0
-91 -205 0
-205 -219 0
-188 -205 0
-56 -205 0
-30 -205 0
-91 -219 0
-91 -188 0
-56 -91 0
-30 -91 0
-188 -219 0
-56 -219 0
-30 -219 0
-56 -188 0
-30 -188 0
-30 -56 0
-101 -233 0
-101 -133 0
-101 -160 0
-101 -143 0
-101 -198 0
-101 -207 0
-133 -233 0
-160 -233 0
-143 -233 0
-198 -233 0
-207 -233 0
-133 -160 0
-133 -143 0
-133 -198 0
-133 -207 0
-143 -160 0
-160 -198 0
-160 -207 0
-143 -198 0
-143 -207 0
-198 -207 0
-64 -115 0
-64 -114 0
-28 -64 0
-64 -167 0
-26 -64 0
-64 -89 0
-114 -115 0
-28 -115 0
-115 -167 0
-26 -115 0
-89 -115 0
-28 -114 0
-114 -167 0
-26 -114 0
-89 -114 0
-28 -167 0
-26 -28 0
-28 -89 0
-26 -167 0
-89 -167 0
-26 -89 0
-173 -253 0
-145 -173 0
-173 -213 0
-45 -173 0
-173 -217 0
-173 -220 0
-145 -253 0
-213 -253 0
-45 -253 0
-217 -253 0
-220 -253 0
-145 -213 0
-45 -145 0
-145 -217 0
-145 -220 0
-45 -213 0
-213 -217 0
-213 -220 0
-45 -217 0
-45 -220 0
-217 -220 0
-108 -229 0
-25 -229 0
-140 -229 0
-109 -229 0
-25 -108 0
-108 -140 0
-108 -109 0
-25 -140 0
-25 -109 0
-109 -140 0
-24 -249 0
-23 -249 0
-249 -252 0
-22 -249 0
-23 -24 0
-24 -252 0
-22 -24 0
-23 -252 0
-22 -23 0
-22 -252 0
-75 -255 0
-73 -255 0
-83 -255 0
-175 -255 0
-73 -75 0
-75 -83 0
-75 -175 0
-73 -83 0
-73 -175 0
-83 -175 0
-70 -146 0
-146 -204 0
-58 -146 0
-103 -146 0
-70 -204 0
-58 -70 0
-70 -103 0
-58 -204 0
-103 -204 0
-58 -103 0
-64 -101 0
-101 -173 0
-101 -229 0
-101 -249 0
-101 -255 0
-101 -146 0
-64 -173 0
-64 -229 0
-64 -249 0
-64 -255 0
-64 -146 0
-173 -229 0
-173 -249 0
-173 -255 0
-146 -173 0
-229 -249 0
-229 -255 0
-146 -229 0
-249 -255 0
-146 -249 0
-146 -255 0
-115 -233 0
-233 -253 0
-108 -233 0
-24 -233 0
-75 -233 0
-70 -233 0
-115 -253 0
-108 -115 0
-24 -115 0
-75 -115 0
-70 -115 0
-108 -253 0
-24 -253 0
-75 -253 0
-70 -253 0
-24 -108 0
-75 -108 0
-70 -108 0
-24 -75 0
-24 -70 0
-70 -75 0
-114 -133 0
-133 -145 0
-25 -133 0
-23 -133 0
-73 -133 0
-133 -204 0
-114 -145 0
-25 -114 0
-23 -114 0
-73 -114 0
-114 -204 0
-25 -145 0
-23 -145 0
-73 -145 0
-145 -204 0
-23 -25 0
-25 -73 0
-25 -204 0
-23 -73 0
-23 -204 0
-73 -204 0
-28 -160 0
-160 -213 0
-140 -160 0
-160 -252 0
-28 -213 0
-28 -140 0
-28 -252 0
-140 -213 0
-213 -252 0
-140 -252 0
-143 -167 0
-45 -143 0
-109 -143 0
-22 -143 0
-45 -167 0
-109 -167 0
-22 -167 0
-45 -109 0
-22 -45 0
-22 -109 0
-26 -198 0
-198 -217 0
-83 -198 0
-58 -198 0
-26 -217 0
-26 -83 0
-26 -58 0
-83 -217 0
-58 -217 0
-58 -83 0
-89 -207 0
-207 -220 0
-175 -207 0
-103 -207 0
-89 -220 0
-89 -175 0
-89 -103 0
-175 -220 0
-103 -220 0
-103 -175 0
-156 -239 0
-156 -169 0
-156 -187 0
-79 -156 0
-156 -179 0
-169 -239 0
-187 -239 0
-79 -239 0
-179 -239 0
-169 -187 0
-79 -169 0
-169 -179 0
-79 -187 0
-179 -187 0
-79 -179 0
-21 -111 0
-20 -21 0
-21 -99 0
-21 -131 0
-21 -88 0
-20 -111 0
-99 -111 0
-111 -131 0
-88 -111 0
-20 -99 0
-20 -131 0
-20 -88 0
-99 -131 0
-88 -99 0
-88 -131 0
-193 -242 0
-200 -242 0
-18 -242 0
-116 -242 0
-223 -242 0
-193 -200 0
-18 -193 0
-116 -193 0
-193 -223 0
-18 -200 0
-116 -200 0
-200 -223 0
-18 -116 0
-18 -223 0
-116 -223 0
-16 -230 0
-100 -132 0
-100 -159 0
-100 -141 0
-132 -159 0
-132 -141 0
-141 -159 0
-65 -113 0
-27 -65 0
-65 -166 0
-27 -113 0
-113 -166 0
-27 -166 0
-21 -156 0
-156 -242 0
-156 -230 0
-21 -242 0
-21 -230 0
-230 -242 0
-111 -239 0
-193 -239 0
-16 -239 0
-111 -193 0
-16 -111 0
-16 -193 0
-20 -169 0
-169 -200 0
-100 -169 0
-65 -169 0
-20 -200 0
-20 -100 0
-20 -65 0
-100 -200 0
-65 -200 0
-65 -100 0
-99 -187 0
-18 -187 0
-132 -187 0
-113 -187 0
-18 -99 0
-99 -132 0
-99 -113 0
-18 -132 0
-18 -113 0
-113 -132 0
-79 -131 0
-79 -116 0
-79 -159 0
-27 -79 0
-116 -131 0
-131 -159 0
-27 -131 0
-116 -159 0
-27 -116 0
-27 -159 0
-88 -179 0
-179 -223 0
-141 -179 0
-166 -179 0
-88 -223 0
-88 -141 0
-88 -166 0
-141 -223 0
-166 -223 0
-141 -166 0
-97 -237 0
-97 -125 0
-97 -152 0
-97 -246 0
-97 -119 0
-125 -237 0
-152 -237 0
-237 -246 0
-119 -237 0
-125 -152 0
-125 -246 0
-119 -125 0
-152 -246 0
-119 -152 0
-119 -246 0
-15 -182 0
-77 -182 0
-182 -215 0
-112 -182 0
-182 -224 0
-15 -77 0
-15 -215 0
-15 -112 0
-15 -224 0
-77 -215 0
-77 -112 0
-77 -224 0
-112 -215 0
-215 -224 0
-112 -224 0
-102 -231 0
-13 -231 0
-144 -231 0
-195 -231 0
-202 -231 0
-13 -102 0
-102 -144 0
-102 -195 0
-102 -202 0
-13 -144 0
-13 -195 0
-13 -202 0
-144 -195 0
-144 -202 0
-195 -202 0
-93 -174 0
-93 -177 0
-12 -93 0
-11 -93 0
-10 -93 0
-174 -177 0
-12 -174 0
-11 -174 0
-10 -174 0
-12 -177 0
-11 -177 0
-10 -177 0
-11 -12 0
-10 -12 0
-10 -11 0
-222 -225 0
-72 -222 0
-222 -235 0
-168 -222 0
-9 -222 0
-186 -222 0
-72 -225 0
-225 -235 0
-168 -225 0
-9 -225 0
-186 -225 0
-72 -235 0
-72 -168 0
-9 -72 0
-72 -186 0
-168 -235 0
-9 -235 0
-186 -235 0
-9 -168 0
-168 -186 0
-9 -186 0
-69 -78 0
-78 -178 0
-61 -78 0
-19 -78 0
-57 -78 0
-78 -98 0
-69 -178 0
-61 -69 0
-19 -69 0
-57 -69 0
-69 -98 0
-61 -178 0
-19 -178 0
-57 -178 0
-98 -178 0
-19 -61 0
-57 -61 0
-61 -98 0
-19 -57 0
-19 -98 0
-57 -98 0
-122 -130 0
-87 -130 0
-128 -130 0
-130 -199 0
-8 -130 0
-17 -130 0
-87 -122 0
-122 -128 0
-122 -199 0
-8 -122 0
-17 -122 0
-87 -128 0
-87 -199 0
-8 -87 0
-17 -87 0
-128 -199 0
-8 -128 0
-17 -128 0
-8 -199 0
-17 -199 0
-8 -17 0
-97 -182 0
-97 -231 0
-93 -97 0
-97 -222 0
-78 -97 0
-97 -130 0
-182 -231 0
-93 -182 0
-182 -222 0
-78 -182 0
-130 -182 0
-93 -231 0
-222 -231 0
-78 -231 0
-130 -231 0
-93 -222 0
-78 -93 0
-93 -130 0
-78 -222 0
-130 -222 0
-78 -130 0
-15 -237 0
-102 -237 0
-174 -237 0
-225 -237 0
-69 -237 0
-122 -237 0
-15 -102 0
-15 -174 0
-15 -225 0
-15 -69 0
-15 -122 0
-102 -174 0
-102 -225 0
-69 -102 0
-102 -122 0
-174 -225 0
-69 -174 0
-122 -174 0
-69 -225 0
-122 -225 0
-69 -122 0
-77 -125 0
-13 -125 0
-125 -177 0
-72 -125 0
-125 -178 0
-87 -125 0
-13 -77 0
-77 -177 0
-72 -77 0
-77 -178 0
-77 -87 0
-13 -177 0
-13 -72 0
-13 -178 0
-13 -87 0
-72 -177 0
-177 -178 0
-87 -177 0
-72 -178 0
-72 -87 0
-87 -178 0
-61 -235 0
-128 -235 0
-61 -128 0
-152 -215 0
-144 -152 0
-12 -152 0
-152 -168 0
-19 -152 0
-152 -199 0
-144 -215 0
-12 -215 0
-168 -215 0
-19 -215 0
-199 -215 0
-12 -144 0
-144 -168 0
-19 -144 0
-144 -199 0
-12 -168 0
-12 -19 0
-12 -199 0
-19 -168 0
-168 -199 0
-19 -199 0
-112 -246 0
-195 -246 0
-11 -246 0
-9 -246 0
-57 -246 0
-8 -246 0
-112 -195 0
-11 -112 0
-9 -112 0
-57 -112 0
-8 -112 0
-11 -195 0
-9 -195 0
-57 -195 0
-8 -195 0
-9 -11 0
-11 -57 0
-8 -11 0
-9 -57 0
-8 -9 0
-8 -57 0
-119 -224 0
-119 -202 0
-10 -119 0
-119 -186 0
-98 -119 0
-17 -119 0
-202 -224 0
-10 -224 0
-186 -224 0
-98 -224 0
-17 -224 0
-10 -202 0
-186 -202 0
-98 -202 0
-17 -202 0
-10 -186 0
-10 -98 0
-10 -17 0
-98 -186 0
-17 -186 0
-17 -98 0
-121 -149 0
-149 -158 0
-7 -149 0
-127 -149 0
-149 -172 0
-135 -149 0
-121 -158 0
-7 -121 0
-121 -127 0
-121 -172 0
-121 -135 0
-7 -158 0
-127 -158 0
-158 -172 0
-135 -158 0
-7 -127 0
-7 -172 0
-7 -135 0
-127 -172 0
-127 -135 0
-135 -172 0
-6 -110 0
-5 -6 0
-6 -150 0
-6 -95 0
-6 -124 0
-6 -86 0
-5 -110 0
-110 -150 0
-95 -110 0
-110 -124 0
-86 -110 0
-5 -150 0
-5 -95 0
-5 -124 0
-5 -86 0
-95 -150 0
-124 -150 0
-86 -150 0
-95 -124 0
-86 -95 0
-86 -124 0
-82 -154 0
-82 -203 0
-4 -82 0
-3 -82 0
-82 -216 0
-82 -227 0
-154 -203 0
-4 -154 0
-3 -154 0
-154 -216 0
-154 -227 0
-4 -203 0
-3 -203 0
-203 -216 0
-203 -227 0
-3 -4 0
-4 -216 0
-4 -227 0
-3 -216 0
-3 -227 0
-216 -227 0
-137 -171 0
-137 -183 0
-137 -189 0
-137 -245 0
-171 -183 0
-171 -189 0
-171 -245 0
-183 -189 0
-183 -245 0
-189 -245 0
-49 -197 0
-197 -208 0
-29 -197 0
-2 -197 0
-49 -208 0
-29 -49 0
-2 -49 0
-29 -208 0
-2 -208 0
-2 -29 0
-118 -151 0
-63 -151 0
-151 -250 0
-59 -151 0
-63 -118 0
-118 -250 0
-59 -118 0
-63 -250 0
-59 -63 0
-59 -250 0
-52 -53 0
-53 -181 0
-14 -53 0
-53 -76 0
-52 -181 0
-14 -52 0
-52 -76 0
-14 -181 0
-76 -181 0
-14 -76 0
-6 -149 0
-82 -149 0
-149 -151 0
-53 -149 0
-6 -82 0
-6 -151 0
-6 -53 0
-82 -151 0
-53 -82 0
-53 -151 0
-110 -121 0
-121 -154 0
-118 -121 0
-52 -121 0
-110 -154 0
-110 -118 0
-52 -110 0
-118 -154 0
-52 -154 0
-52 -118 0
-5 -158 0
-158 -203 0
-137 -158 0
-158 -197 0
-63 -158 0
-158 -181 0
-5 -203 0
-5 -137 0
-5 -197 0
-5 -63 0
-5 -181 0
-137 -203 0
-197 -203 0
-63 -203 0
-181 -203 0
-137 -197 0
-63 -137 0
-137 -181 0
-63 -197 0
-181 -197 0
-63 -181 0
-7 -150 0
-4 -7 0
-7 -171 0
-7 -49 0
-7 -250 0
-7 -14 0
-4 -150 0
-150 -171 0
-49 -150 0
-150 -250 0
-14 -150 0
-4 -171 0
-4 -49 0
-4 -250 0
-4 -14 0
-49 -171 0
-171 -250 0
-14 -171 0
-49 -250 0
-14 -49 0
-14 -250 0
-95 -127 0
-3 -127 0
-127 -183 0
-127 -208 0
-59 -127 0
-76 -127 0
-3 -95 0
-95 -183 0
-95 -208 0
-59 -95 0
-76 -95 0
-3 -183 0
-3 -208 0
-3 -59 0
-3 -76 0
-183 -208 0
-59 -183 0
-76 -183 0
-59 -208 0
-76 -208 0
-59 -76 0
-124 -172 0
-172 -216 0
-172 -189 0
-29 -172 0
-124 -216 0
-124 -189 0
-29 -124 0
-189 -216 0
-29 -216 0
-29 -189 0
-86 -135 0
-135 -227 0
-135 -245 0
-2 -135 0
-86 -227 0
-86 -245 0
-2 -86 0
-227 -245 0
-2 -227 0
-2 -245 0
-37 -164 0
-126 -164 0
-84 -164 0
-37 -126 0
-37 -84 0
-84 -126 0
-185 -191 0
-80 -185 0
-180 -185 0
-80 -191 0
-180 -191 0
-80 -180 0
-71 -74 0
-74 -148 0
-74 -120 0
-71 -148 0
-71 -120 0
-120 -148 0
-1 -85 0
-1 -81 0
-1 -153 0
-81 -85 0
-85 -153 0
-81 -153 0
-164 -185 0
-74 -164 0
-1 -164 0
-74 -185 0
-1 -185 0
-1 -74 0
-37 -191 0
-37 -71 0
-37 -85 0
-71 -191 0
-85 -191 0
-71 -85 0
-80 -126 0
-126 -148 0
-81 -126 0
-80 -148 0
-80 -81 0
-81 -148 0
-84 -180 0
-84 -120 0
-84 -153 0
-120 -180 0
-153 -180 0
-120 -153 0
-40 -106 0
-106 -138 0
-40 -138 0
-38 -165 0
-36 -165 0
-157 -165 0
-165 -184 0
-165 -190 0
-36 -38 0
-38 -157 0
-38 -184 0
-38 -190 0
-36 -157 0
-36 -184 0
-36 -190 0
-157 -184 0
-157 -190 0
-184 -190 0
-101 -233 0
-101 -133 0
-64 -101 0
-101 -115 0
-101 -114 0
-101 -173 0
-101 -253 0
-101 -145 0
-133 -233 0
-64 -233 0
-115 -233 0
-114 -233 0
-173 -233 0
-233 -253 0
-145 -233 0
-64 -133 0
-115 -133 0
-114 -133 0
-133 -173 0
-133 -253 0
-133 -145 0
-64 -115 0
-64 -114 0
-64 -173 0
-64 -253 0
-64 -145 0
-114 -115 0
-115 -173 0
-115 -253 0
-115 -145 0
-114 -173 0
-114 -253 0
-114 -145 0
-173 -253 0
-145 -173 0
-145 -253 0
-156 -239 0
-21 -156 0
-111 -156 0
-156 -242 0
-156 -193 0
-21 -239 0
-111 -239 0
-239 -242 0
-193 -239 0
-21 -111 0
-21 -242 0
-21 -193 0
-111 -242 0
-111 -193 0
-193 -242 0
-97 -237 0
-97 -125 0
-97 -182 0
-15 -97 0
-77 -97 0
-125 -237 0
-182 -237 0
-15 -237 0
-77 -237 0
-125 -182 0
-15 -125 0
-77 -125 0
-15 -182 0
-77 -182 0
-15 -77 0
-121 -149 0
-6 -149 0
-110 -149 0
-82 -149 0
-149 -154 0
-6 -121 0
-110 -121 0
-82 -121 0
-121 -154 0
-6 -110 0
-6 -82 0
-6 -154 0
-82 -110 0
-110 -154 0
-82 -154 0
-44 -162 0
-44 -210 0
-42 -44 0
-162 -210 0
-42 -162 0
-42 -210 0
-90 -176 0
-35 -90 0
-90 -104 0
-90 -211 0
-34 -90 0
-35 -176 0
-104 -176 0
-176 -211 0
-34 -176 0
-35 -104 0
-35 -211 0
-34 -35 0
-104 -211 0
-34 -104 0
-34 -211 0
-143 -160 0
-28 -160 0
-160 -167 0
-160 -213 0
-45 -160 0
-28 -143 0
-143 -167 0
-143 -213 0
-45 -143 0
-28 -167 0
-28 -213 0
-28 -45 0
-167 -213 0
-45 -167 0
-45 -213 0
-169 -187 0
-20 -169 0
-99 -169 0
-169 -200 0
-18 -169 0
-20 -187 0
-99 -187 0
-187 -200 0
-18 -187 0
-20 -99 0
-20 -200 0
-18 -20 0
-99 -200 0
-18 -99 0
-18 -200 0
-7 -158 0
-127 -158 0
-5 -158 0
-150 -158 0
-95 -158 0
-158 -203 0
-4 -158 0
-3 -158 0
-7 -127 0
-5 -7 0
-7 -150 0
-7 -95 0
-7 -203 0
-4 -7 0
-3 -7 0
-5 -127 0
-127 -150 0
-95 -127 0
-127 -203 0
-4 -127 0
-3 -127 0
-5 -150 0
-5 -95 0
-5 -203 0
-4 -5 0
-3 -5 0
-95 -150 0
-150 -203 0
-4 -150 0
-3 -150 0
-95 -203 0
-4 -95 0
-3 -95 0
-4 -203 0
-3 -203 0
-3 -4 0
-48 -206 0
-94 -221 0
-147 -205 0
-134 -147 0
-91 -147 0
-147 -214 0
-147 -219 0
-134 -205 0
-91 -205 0
-205 -214 0
-205 -219 0
-91 -134 0
-134 -214 0
-134 -219 0
-91 -214 0
-91 -219 0
-214 -219 0
-198 -207 0
-26 -198 0
-89 -198 0
-198 -217 0
-198 -220 0
-26 -207 0
-89 -207 0
-207 -217 0
-207 -220 0
-26 -89 0
-26 -217 0
-26 -220 0
-89 -217 0
-89 -220 0
-217 -220 0
-79 -179 0
-79 -131 0
-79 -88 0
-79 -116 0
-79 -223 0
-131 -179 0
-88 -179 0
-116 -179 0
-179 -223 0
-88 -131 0
-116 -131 0
-131 -223 0
-88 -116 0
-88 -223 0
-116 -223 0
-152 -246 0
-119 -152 0
-152 -215 0
-112 -152 0
-152 -224 0
-119 -246 0
-215 -246 0
-112 -246 0
-224 -246 0
-119 -215 0
-112 -119 0
-119 -224 0
-112 -215 0
-215 -224 0
-112 -224 0
-135 -172 0
-124 -172 0
-86 -172 0
-172 -216 0
-172 -227 0
-124 -135 0
-86 -135 0
-135 -216 0
-135 -227 0
-86 -124 0
-124 -216 0
-124 -227 0
-86 -216 0
-86 -227 0
-216 -227 0
-155 -226 0
-123 -226 0
-226 -243 0
-123 -155 0
-155 -243 0
-123 -243 0
-163 -232 0
-96 -163 0
-163 -247 0
-117 -163 0
-62 -163 0
-96 -232 0
-232 -247 0
-117 -232 0
-62 -232 0
-96 -247 0
-96 -117 0
-62 -96 0
-117 -247 0
-62 -247 0
-62 -117 0
-108 -229 0
-25 -229 0
-229 -249 0
-24 -229 0
-23 -229 0
-25 -108 0
-108 -249 0
-24 -108 0
-23 -108 0
-25 -249 0
-24 -25 0
-23 -25 0
-24 -249 0
-23 -249 0
-23 -24 0
-16 -230 0
-102 -231 0
-13 -231 0
-93 -231 0
-174 -231 0
-177 -231 0
-13 -102 0
-93 -102 0
-102 -174 0
-102 -177 0
-13 -93 0
-13 -174 0
-13 -177 0
-93 -174 0
-93 -177 0
-174 -177 0
-37 -164 0
-164 -185 0
-164 -191 0
-37 -185 0
-37 -191 0
-185 -191 0
-161 -234 0
-234 -254 0
-212 -234 0
-161 -254 0
-161 -212 0
-212 -254 0
-236 -240 0
-129 -236 0
-192 -236 0
-129 -240 0
-192 -240 0
-129 -192 0
-238 -251 0
-109 -140 0
-140 -252 0
-22 -140 0
-109 -252 0
-22 -109 0
-22 -252 0
-137 -171 0
-137 -183 0
-137 -197 0
-49 -137 0
-137 -208 0
-171 -183 0
-171 -197 0
-49 -171 0
-171 -208 0
-183 -197 0
-49 -183 0
-183 -208 0
-49 -197 0
-197 -208 0
-49 -208 0
-84 -126 0
-80 -126 0
-126 -180 0
-80 -84 0
-84 -180 0
-80 -180 0
-142 -241 0
-47 -241 0
-46 -241 0
-47 -142 0
-46 -142 0
-46 -47 0
-144 -195 0
-144 -202 0
-12 -144 0
-11 -144 0
-10 -144 0
-195 -202 0
-12 -195 0
-11 -195 0
-10 -195 0
-12 -202 0
-11 -202 0
-10 -202 0
-11 -12 0
-10 -12 0
-10 -11 0
-189 -245 0
-29 -189 0
-2 -189 0
-29 -245 0
-2 -245 0
-2 -29 0
-41 -68 0
-194 -201 0
-67 -194 0
-55 -194 0
-39 -194 0
-92 -194 0
-67 -201 0
-55 -201 0
-39 -201 0
-92 -201 0
-55 -67 0
-39 -67 0
-67 -92 0
-39 -55 0
-55 -92 0
-39 -92 0
-218 -228 0
-33 -218 0
-218 -244 0
-54 -218 0
-31 -218 0
-33 -228 0
-228 -244 0
-54 -228 0
-31 -228 0
-33 -244 0
-33 -54 0
-31 -33 0
-54 -244 0
-31 -244 0
-31 -54 0
-75 -255 0
-73 -255 0
-146 -255 0
-70 -255 0
-204 -255 0
-73 -75 0
-75 -146 0
-70 -75 0
-75 -204 0
-73 -146 0
-70 -73 0
-73 -204 0
-70 -146 0
-146 -204 0
-70 -204 0
-222 -225 0
-72 -222 0
-78 -222 0
-69 -222 0
-178 -222 0
-130 -222 0
-122 -222 0
-87 -222 0
-72 -225 0
-78 -225 0
-69 -225 0
-178 -225 0
-130 -225 0
-122 -225 0
-87 -225 0
-72 -78 0
-69 -72 0
-72 -178 0
-72 -130 0
-72 -122 0
-72 -87 0
-69 -78 0
-78 -178 0
-78 -130 0
-78 -122 0
-78 -87 0
-69 -178 0
-69 -130 0
-69 -122 0
-69 -87 0
-130 -178 0
-122 -178 0
-87 -178 0
-122 -130 0
-87 -130 0
-87 -122 0
-118 -151 0
-53 -151 0
-52 -151 0
-53 -118 0
-52 -118 0
-52 -53 0
-71 -74 0
-1 -74 0
-74 -85 0
-1 -71 0
-71 -85 0
-1 -85 0
-107 -139 0
-105 -136 0
-66 -105 0
-60 -105 0
-51 -105 0
-105 -196 0
-66 -136 0
-60 -136 0
-51 -136 0
-136 -196 0
-60 -66 0
-51 -66 0
-66 -196 0
-51 -60 0
-60 -196 0
-51 -196 0
-100 -132 0
-65 -100 0
-100 -113 0
-65 -132 0
-113 -132 0
-65 -113 0
-61 -235 0
-128 -235 0
-61 -128 0
-63 -250 0
-59 -63 0
-63 -181 0
-14 -63 0
-63 -76 0
-59 -250 0
-181 -250 0
-14 -250 0
-76 -250 0
-59 -181 0
-14 -59 0
-59 -76 0
-14 -181 0
-76 -181 0
-14 -76 0
-120 -148 0
-81 -148 0
-148 -153 0
-81 -120 0
-120 -153 0
-81 -153 0
-43 -209 0
-170 -188 0
-32 -170 0
-56 -170 0
-50 -170 0
-30 -170 0
-32 -188 0
-56 -188 0
-50 -188 0
-30 -188 0
-32 -56 0
-32 -50 0
-30 -32 0
-50 -56 0
-30 -56 0
-30 -50 0
-83 -175 0
-58 -83 0
-83 -103 0
-58 -175 0
-103 -175 0
-58 -103 0
-141 -159 0
-27 -159 0
-159 -166 0
-27 -141 0
-141 -166 0
-27 -166 0
-9 -168 0
-168 -186 0
-19 -168 0
-57 -168 0
-98 -168 0
-168 -199 0
-8 -168 0
-17 -168 0
-9 -186 0
-9 -19 0
-9 -57 0
-9 -98 0
-9 -199 0
-8 -9 0
-9 -17 0
-19 -186 0
-57 -186 0
-98 -186 0
-186 -199 0
-8 -186 0
-17 -186 0
-19 -57 0
-19 -98 0
-19 -199 0
-8 -19 0
-17 -19 0
-57 -98 0
-57 -199 0
-8 -57 0
-17 -57 0
-98 -199 0
-8 -98 0
-17 -98 0
-8 -199 0
-17 -199 0
-8 -17 0
